Problem
 LPDCMP1
Minimize
 OBJCTV01:   X00 + 2 X01 + 3 X02 + 21/5 X03 + 5 X04 + 31/5 X05 + 5 X06 + 31/5 X07 +  X10 + 2 X11 + 3 X12 + 21/5 X13 + 5 X14 + 31/5 X15 + 5 X16 + 31/5 X17 +  X20 + 2 X21 + 3 X22 + 21/5 X23 + 5 X24 + 31/5 X25 + 5 X26 + 31/5 X27
Subject To
 B0101:  -  X00 -  X01 +  X06 = -1
 B0102:   X00 +  X02 -  X04 +  X05 -  X06 = 1
 B0103:  -  X02 -  X03 +  X07 = -1
 B0104:   X01 +  X03 +  X04 -  X05 -  X07 = 1
 B0205:  -  X10 -  X11 +  X16 = -1
 B0206:   X10 +  X12 -  X14 +  X15 -  X16 = 1
 B0207:  -  X12 -  X13 +  X17 = -2
 B0208:   X11 +  X13 +  X14 -  X15 -  X17 = 2
 B0309:  -  X20 -  X21 +  X26 = -1
 B0310:   X20 +  X22 -  X24 +  X25 -  X26 = 1
 B0311:  -  X22 -  X23 +  X27 = -3
 B0312:   X21 +  X23 +  X24 -  X25 -  X27 = 3
 CPL13:   X01 +  X11 +  X21 <= 1
End
